mapa = [|
         9,9,9,9,9,9,9,9|
         9,9,9,9,0,0,0,9|
         9,8,8,8,8,8,8,9|
         9,8,1,9,4,9,2,9|
         9,8,8,8,8,8,8,9|
         9,9,9,9,0,0,0,9|
         9,9,9,9,9,9,9,9|];
dimx = 7;
dimy = 8;
filav = 6;
colav = 6;
